TITLE: PANAS Terrazas - CFA Online;

DATA:
FILE = ../../data/datos_com_terr_legacy_order.txt;

VARIABLE:
NAMES =
id MODO online
ap1cc ap1sc an1cc an1sc
ap2cc ap2sc an2cc an2sc
ap3cc ap3sc an3cc an3sc
ap4cc ap4sc an4cc an4sc
ap5cc ap5sc an5cc an5sc
S1cc S1sc S2cc S2sc S3cc
S3sc S4cc S4sc S5cc S5sc
ap1ct ap1st an1ct an1st
ap2ct ap2st an2ct an2st
ap3ct ap3st an3ct an3st
ap4ct ap4st an4ct an4st
ap5ct ap5st an5ct an5st
S1ct S1st S2ct S2st S3ct
S3st S4ct S4st S5ct S5st
V1 V2 V3 V4 V5 V6 V7 V8 V9
V10 V11 V12 V13 V14 V15 V16
V17 V18 V19;

USEVARIABLES =
S1ct S1st S2ct S2st S3ct
S3st S4ct S4st S5ct S5st;

USEOBSERVATIONS = online EQ 2;

MISSING = ALL (-999);

ANALYSIS:
ESTIMATOR = MLR;

MODEL:

Sct BY S1ct S2ct S3ct S4ct S5ct;
Sst BY S1st S2st S3st S4st S5st;

Sct WITH Sst;

S1ct WITH S1st;
S2ct WITH S2st;
S3ct WITH S3st;
S4ct WITH S4st;
S5ct WITH S5st;

OUTPUT:
STANDARDIZED;
MODINDICES(10);
SAMPSTAT;
RESIDUAL;
TECH1;
TECH4;
